n_res = 4;
rc = [ 28, 32, 29, 37 ];
n_tasks = 30;
d = [ 3, 7, 6, 4, 6, 7, 9, 9, 3, 7, 8, 1, 5, 5, 5, 10, 5, 1, 10, 2, 7, 8, 4, 4, 9, 8, 5, 10, 4, 1 ];
rr = [| 8, 3, 10, 7, 10, 6, 0, 2, 1, 5, 0, 1, 1, 10, 5, 7, 0, 5, 0, 4, 3, 5, 10, 1, 0, 9, 1, 0, 0, 5
      | 0, 0, 7, 6, 4, 6, 8, 2, 9, 7, 0, 10, 7, 1, 6, 3, 0, 0, 5, 0, 4, 5, 3, 5, 8, 4, 6, 3, 6, 6
      | 0, 1, 6, 8, 7, 0, 3, 10, 3, 9, 2, 10, 4, 0, 7, 3, 2, 6, 0, 6, 0, 9, 9, 0, 0, 0, 0, 0, 10, 6
      | 9, 9, 9, 10, 0, 9, 7, 4, 8, 6, 10, 4, 1, 6, 6, 7, 8, 5, 1, 8, 0, 0, 0, 10, 4, 0, 3, 2, 6, 0 |];
suc = [ { 2 }, 
        { 1 }, 
        { 4 }, 
        { 3 }, 
        { 6 }, 
        { 5 }, 
        { 8 }, 
        { 7 }, 
        { 10 }, 
        { 9 }, 
        { 12 }, 
        { 11 }, 
        { 14 }, 
        { 13 }, 
        { 16 }, 
        { 15 }, 
        { 18 }, 
        { 17 }, 
        { 20 }, 
        { 19 }, 
        { 22 }, 
        { 21 }, 
        { 24 }, 
        { 23 }, 
        { 26 }, 
        { 25 }, 
        { 28 }, 
        { 27 }, 
        { 30 }, 
        { 29 }]; 
